Minimize 
	obj: r


Subject To
	dem11: x111 + x121 + x131 + x141 + x151 + x161 + x171 = 2
	dem12: x112 + x122 + x132 + x142 + x152 + x162 + x172 = 3
	dem13: x113 + x123 + x133 + x143 + x153 + x163 + x173 = 4
	dem14: x114 + x124 + x134 + x144 + x154 + x164 + x174 = 5
	dem15: x115 + x125 + x135 + x145 + x155 + x165 + x175 = 6
	dem16: x116 + x126 + x136 + x146 + x156 + x166 + x176 = 7
	dem17: x117 + x127 + x137 + x147 + x157 + x167 + x177 = 8
	dem21: x211 + x221 + x231 + x241 + x251 + x261 + x271 = 3
	dem22: x212 + x222 + x232 + x242 + x252 + x262 + x272 = 4
	dem23: x213 + x223 + x233 + x243 + x253 + x263 + x273 = 5
	dem24: x214 + x224 + x234 + x244 + x254 + x264 + x274 = 6
	dem25: x215 + x225 + x235 + x245 + x255 + x265 + x275 = 7
	dem26: x216 + x226 + x236 + x246 + x256 + x266 + x276 = 8
	dem27: x217 + x227 + x237 + x247 + x257 + x267 + x277 = 9
	dem31: x311 + x321 + x331 + x341 + x351 + x361 + x371 = 4
	dem32: x312 + x322 + x332 + x342 + x352 + x362 + x372 = 5
	dem33: x313 + x323 + x333 + x343 + x353 + x363 + x373 = 6
	dem34: x314 + x324 + x334 + x344 + x354 + x364 + x374 = 7
	dem35: x315 + x325 + x335 + x345 + x355 + x365 + x375 = 8
	dem36: x316 + x326 + x336 + x346 + x356 + x366 + x376 = 9
	dem37: x317 + x327 + x337 + x347 + x357 + x367 + x377 = 10
	dem41: x411 + x421 + x431 + x441 + x451 + x461 + x471 = 5
	dem42: x412 + x422 + x432 + x442 + x452 + x462 + x472 = 6
	dem43: x413 + x423 + x433 + x443 + x453 + x463 + x473 = 7
	dem44: x414 + x424 + x434 + x444 + x454 + x464 + x474 = 8
	dem45: x415 + x425 + x435 + x445 + x455 + x465 + x475 = 9
	dem46: x416 + x426 + x436 + x446 + x456 + x466 + x476 = 10
	dem47: x417 + x427 + x437 + x447 + x457 + x467 + x477 = 11
	dem51: x511 + x521 + x531 + x541 + x551 + x561 + x571 = 6
	dem52: x512 + x522 + x532 + x542 + x552 + x562 + x572 = 7
	dem53: x513 + x523 + x533 + x543 + x553 + x563 + x573 = 8
	dem54: x514 + x524 + x534 + x544 + x554 + x564 + x574 = 9
	dem55: x515 + x525 + x535 + x545 + x555 + x565 + x575 = 10
	dem56: x516 + x526 + x536 + x546 + x556 + x566 + x576 = 11
	dem57: x517 + x527 + x537 + x547 + x557 + x567 + x577 = 12
	dem61: x611 + x621 + x631 + x641 + x651 + x661 + x671 = 7
	dem62: x612 + x622 + x632 + x642 + x652 + x662 + x672 = 8
	dem63: x613 + x623 + x633 + x643 + x653 + x663 + x673 = 9
	dem64: x614 + x624 + x634 + x644 + x654 + x664 + x674 = 10
	dem65: x615 + x625 + x635 + x645 + x655 + x665 + x675 = 11
	dem66: x616 + x626 + x636 + x646 + x656 + x666 + x676 = 12
	dem67: x617 + x627 + x637 + x647 + x657 + x667 + x677 = 13
	dem71: x711 + x721 + x731 + x741 + x751 + x761 + x771 = 8
	dem72: x712 + x722 + x732 + x742 + x752 + x762 + x772 = 9
	dem73: x713 + x723 + x733 + x743 + x753 + x763 + x773 = 10
	dem74: x714 + x724 + x734 + x744 + x754 + x764 + x774 = 11
	dem75: x715 + x725 + x735 + x745 + x755 + x765 + x775 = 12
	dem76: x716 + x726 + x736 + x746 + x756 + x766 + x776 = 13
	dem77: x717 + x727 + x737 + x747 + x757 + x767 + x777 = 14

	capS11: x111 + x112 + x113 + x114 + x115 + x116 + x117 - c11 <= 0
	capS12: x121 + x122 + x123 + x124 + x125 + x126 + x127 - c12 <= 0
	capS13: x131 + x132 + x133 + x134 + x135 + x136 + x137 - c13 <= 0
	capS14: x141 + x142 + x143 + x144 + x145 + x146 + x147 - c14 <= 0
	capS15: x151 + x152 + x153 + x154 + x155 + x156 + x157 - c15 <= 0
	capS16: x161 + x162 + x163 + x164 + x165 + x166 + x167 - c16 <= 0
	capS17: x171 + x172 + x173 + x174 + x175 + x176 + x177 - c17 <= 0
	capS21: x211 + x212 + x213 + x214 + x215 + x216 + x217 - c21 <= 0
	capS22: x221 + x222 + x223 + x224 + x225 + x226 + x227 - c22 <= 0
	capS23: x231 + x232 + x233 + x234 + x235 + x236 + x237 - c23 <= 0
	capS24: x241 + x242 + x243 + x244 + x245 + x246 + x247 - c24 <= 0
	capS25: x251 + x252 + x253 + x254 + x255 + x256 + x257 - c25 <= 0
	capS26: x261 + x262 + x263 + x264 + x265 + x266 + x267 - c26 <= 0
	capS27: x271 + x272 + x273 + x274 + x275 + x276 + x277 - c27 <= 0
	capS31: x311 + x312 + x313 + x314 + x315 + x316 + x317 - c31 <= 0
	capS32: x321 + x322 + x323 + x324 + x325 + x326 + x327 - c32 <= 0
	capS33: x331 + x332 + x333 + x334 + x335 + x336 + x337 - c33 <= 0
	capS34: x341 + x342 + x343 + x344 + x345 + x346 + x347 - c34 <= 0
	capS35: x351 + x352 + x353 + x354 + x355 + x356 + x357 - c35 <= 0
	capS36: x361 + x362 + x363 + x364 + x365 + x366 + x367 - c36 <= 0
	capS37: x371 + x372 + x373 + x374 + x375 + x376 + x377 - c37 <= 0
	capS41: x411 + x412 + x413 + x414 + x415 + x416 + x417 - c41 <= 0
	capS42: x421 + x422 + x423 + x424 + x425 + x426 + x427 - c42 <= 0
	capS43: x431 + x432 + x433 + x434 + x435 + x436 + x437 - c43 <= 0
	capS44: x441 + x442 + x443 + x444 + x445 + x446 + x447 - c44 <= 0
	capS45: x451 + x452 + x453 + x454 + x455 + x456 + x457 - c45 <= 0
	capS46: x461 + x462 + x463 + x464 + x465 + x466 + x467 - c46 <= 0
	capS47: x471 + x472 + x473 + x474 + x475 + x476 + x477 - c47 <= 0
	capS51: x511 + x512 + x513 + x514 + x515 + x516 + x517 - c51 <= 0
	capS52: x521 + x522 + x523 + x524 + x525 + x526 + x527 - c52 <= 0
	capS53: x531 + x532 + x533 + x534 + x535 + x536 + x537 - c53 <= 0
	capS54: x541 + x542 + x543 + x544 + x545 + x546 + x547 - c54 <= 0
	capS55: x551 + x552 + x553 + x554 + x555 + x556 + x557 - c55 <= 0
	capS56: x561 + x562 + x563 + x564 + x565 + x566 + x567 - c56 <= 0
	capS57: x571 + x572 + x573 + x574 + x575 + x576 + x577 - c57 <= 0
	capS61: x611 + x612 + x613 + x614 + x615 + x616 + x617 - c61 <= 0
	capS62: x621 + x622 + x623 + x624 + x625 + x626 + x627 - c62 <= 0
	capS63: x631 + x632 + x633 + x634 + x635 + x636 + x637 - c63 <= 0
	capS64: x641 + x642 + x643 + x644 + x645 + x646 + x647 - c64 <= 0
	capS65: x651 + x652 + x653 + x654 + x655 + x656 + x657 - c65 <= 0
	capS66: x661 + x662 + x663 + x664 + x665 + x666 + x667 - c66 <= 0
	capS67: x671 + x672 + x673 + x674 + x675 + x676 + x677 - c67 <= 0
	capS71: x711 + x712 + x713 + x714 + x715 + x716 + x717 - c71 <= 0
	capS72: x721 + x722 + x723 + x724 + x725 + x726 + x727 - c72 <= 0
	capS73: x731 + x732 + x733 + x734 + x735 + x736 + x737 - c73 <= 0
	capS74: x741 + x742 + x743 + x744 + x745 + x746 + x747 - c74 <= 0
	capS75: x751 + x752 + x753 + x754 + x755 + x756 + x757 - c75 <= 0
	capS76: x761 + x762 + x763 + x764 + x765 + x766 + x767 - c76 <= 0
	capS77: x771 + x772 + x773 + x774 + x775 + x776 + x777 - c77 <= 0

	capD11: x111 + x211 + x311 + x411 + x511 + x611 + x711 - d11 <= 0
	capD21: x121 + x221 + x321 + x421 + x521 + x621 + x721 - d21 <= 0
	capD31: x131 + x231 + x331 + x431 + x531 + x631 + x731 - d31 <= 0
	capD41: x141 + x241 + x341 + x441 + x541 + x641 + x741 - d41 <= 0
	capD51: x151 + x251 + x351 + x451 + x551 + x651 + x751 - d51 <= 0
	capD61: x161 + x261 + x361 + x461 + x561 + x661 + x761 - d61 <= 0
	capD71: x171 + x271 + x371 + x471 + x571 + x671 + x771 - d71 <= 0
	capD12: x112 + x212 + x312 + x412 + x512 + x612 + x712 - d12 <= 0
	capD22: x122 + x222 + x322 + x422 + x522 + x622 + x722 - d22 <= 0
	capD32: x132 + x232 + x332 + x432 + x532 + x632 + x732 - d32 <= 0
	capD42: x142 + x242 + x342 + x442 + x542 + x642 + x742 - d42 <= 0
	capD52: x152 + x252 + x352 + x452 + x552 + x652 + x752 - d52 <= 0
	capD62: x162 + x262 + x362 + x462 + x562 + x662 + x762 - d62 <= 0
	capD72: x172 + x272 + x372 + x472 + x572 + x672 + x772 - d72 <= 0
	capD13: x113 + x213 + x313 + x413 + x513 + x613 + x713 - d13 <= 0
	capD23: x123 + x223 + x323 + x423 + x523 + x623 + x723 - d23 <= 0
	capD33: x133 + x233 + x333 + x433 + x533 + x633 + x733 - d33 <= 0
	capD43: x143 + x243 + x343 + x443 + x543 + x643 + x743 - d43 <= 0
	capD53: x153 + x253 + x353 + x453 + x553 + x653 + x753 - d53 <= 0
	capD63: x163 + x263 + x363 + x463 + x563 + x663 + x763 - d63 <= 0
	capD73: x173 + x273 + x373 + x473 + x573 + x673 + x773 - d73 <= 0
	capD14: x114 + x214 + x314 + x414 + x514 + x614 + x714 - d14 <= 0
	capD24: x124 + x224 + x324 + x424 + x524 + x624 + x724 - d24 <= 0
	capD34: x134 + x234 + x334 + x434 + x534 + x634 + x734 - d34 <= 0
	capD44: x144 + x244 + x344 + x444 + x544 + x644 + x744 - d44 <= 0
	capD54: x154 + x254 + x354 + x454 + x554 + x654 + x754 - d54 <= 0
	capD64: x164 + x264 + x364 + x464 + x564 + x664 + x764 - d64 <= 0
	capD74: x174 + x274 + x374 + x474 + x574 + x674 + x774 - d74 <= 0
	capD15: x115 + x215 + x315 + x415 + x515 + x615 + x715 - d15 <= 0
	capD25: x125 + x225 + x325 + x425 + x525 + x625 + x725 - d25 <= 0
	capD35: x135 + x235 + x335 + x435 + x535 + x635 + x735 - d35 <= 0
	capD45: x145 + x245 + x345 + x445 + x545 + x645 + x745 - d45 <= 0
	capD55: x155 + x255 + x355 + x455 + x555 + x655 + x755 - d55 <= 0
	capD65: x165 + x265 + x365 + x465 + x565 + x665 + x765 - d65 <= 0
	capD75: x175 + x275 + x375 + x475 + x575 + x675 + x775 - d75 <= 0
	capD16: x116 + x216 + x316 + x416 + x516 + x616 + x716 - d16 <= 0
	capD26: x126 + x226 + x326 + x426 + x526 + x626 + x726 - d26 <= 0
	capD36: x136 + x236 + x336 + x436 + x536 + x636 + x736 - d36 <= 0
	capD46: x146 + x246 + x346 + x446 + x546 + x646 + x746 - d46 <= 0
	capD56: x156 + x256 + x356 + x456 + x556 + x656 + x756 - d56 <= 0
	capD66: x166 + x266 + x366 + x466 + x566 + x666 + x766 - d66 <= 0
	capD76: x176 + x276 + x376 + x476 + x576 + x676 + x776 - d76 <= 0
	capD17: x117 + x217 + x317 + x417 + x517 + x617 + x717 - d17 <= 0
	capD27: x127 + x227 + x327 + x427 + x527 + x627 + x727 - d27 <= 0
	capD37: x137 + x237 + x337 + x437 + x537 + x637 + x737 - d37 <= 0
	capD47: x147 + x247 + x347 + x447 + x547 + x647 + x747 - d47 <= 0
	capD57: x157 + x257 + x357 + x457 + x557 + x657 + x757 - d57 <= 0
	capD67: x167 + x267 + x367 + x467 + x567 + x667 + x767 - d67 <= 0
	capD77: x177 + x277 + x377 + x477 + x577 + x677 + x777 - d77 <= 0

	transit1: x111 + x112 + x113 + x114 + x115 + x116 + x117 + x211 + x212 + x213 + x214 + x215 + x216 + x217 + x311 + x312 + x313 + x314 + x315 + x316 + x317 + x411 + x412 + x413 + x414 + x415 + x416 + x417 + x511 + x512 + x513 + x514 + x515 + x516 + x517 + x611 + x612 + x613 + x614 + x615 + x616 + x617 + x711 + x712 + x713 + x714 + x715 + x716 + x717 - r <= 0
	transit2: x121 + x122 + x123 + x124 + x125 + x126 + x127 + x221 + x222 + x223 + x224 + x225 + x226 + x227 + x321 + x322 + x323 + x324 + x325 + x326 + x327 + x421 + x422 + x423 + x424 + x425 + x426 + x427 + x521 + x522 + x523 + x524 + x525 + x526 + x527 + x621 + x622 + x623 + x624 + x625 + x626 + x627 + x721 + x722 + x723 + x724 + x725 + x726 + x727 - r <= 0
	transit3: x131 + x132 + x133 + x134 + x135 + x136 + x137 + x231 + x232 + x233 + x234 + x235 + x236 + x237 + x331 + x332 + x333 + x334 + x335 + x336 + x337 + x431 + x432 + x433 + x434 + x435 + x436 + x437 + x531 + x532 + x533 + x534 + x535 + x536 + x537 + x631 + x632 + x633 + x634 + x635 + x636 + x637 + x731 + x732 + x733 + x734 + x735 + x736 + x737 - r <= 0
	transit4: x141 + x142 + x143 + x144 + x145 + x146 + x147 + x241 + x242 + x243 + x244 + x245 + x246 + x247 + x341 + x342 + x343 + x344 + x345 + x346 + x347 + x441 + x442 + x443 + x444 + x445 + x446 + x447 + x541 + x542 + x543 + x544 + x545 + x546 + x547 + x641 + x642 + x643 + x644 + x645 + x646 + x647 + x741 + x742 + x743 + x744 + x745 + x746 + x747 - r <= 0
	transit5: x151 + x152 + x153 + x154 + x155 + x156 + x157 + x251 + x252 + x253 + x254 + x255 + x256 + x257 + x351 + x352 + x353 + x354 + x355 + x356 + x357 + x451 + x452 + x453 + x454 + x455 + x456 + x457 + x551 + x552 + x553 + x554 + x555 + x556 + x557 + x651 + x652 + x653 + x654 + x655 + x656 + x657 + x751 + x752 + x753 + x754 + x755 + x756 + x757 - r <= 0
	transit6: x161 + x162 + x163 + x164 + x165 + x166 + x167 + x261 + x262 + x263 + x264 + x265 + x266 + x267 + x361 + x362 + x363 + x364 + x365 + x366 + x367 + x461 + x462 + x463 + x464 + x465 + x466 + x467 + x561 + x562 + x563 + x564 + x565 + x566 + x567 + x661 + x662 + x663 + x664 + x665 + x666 + x667 + x761 + x762 + x763 + x764 + x765 + x766 + x767 - r <= 0
	transit7: x171 + x172 + x173 + x174 + x175 + x176 + x177 + x271 + x272 + x273 + x274 + x275 + x276 + x277 + x371 + x372 + x373 + x374 + x375 + x376 + x377 + x471 + x472 + x473 + x474 + x475 + x476 + x477 + x571 + x572 + x573 + x574 + x575 + x576 + x577 + x671 + x672 + x673 + x674 + x675 + x676 + x677 + x771 + x772 + x773 + x774 + x775 + x776 + x777 - r <= 0

	bin11: u111 + u121 + u131 + u141 + u151 + u161 + u171 = 2
	bin12: u112 + u122 + u132 + u142 + u152 + u162 + u172 = 2
	bin13: u113 + u123 + u133 + u143 + u153 + u163 + u173 = 2
	bin14: u114 + u124 + u134 + u144 + u154 + u164 + u174 = 2
	bin15: u115 + u125 + u135 + u145 + u155 + u165 + u175 = 2
	bin16: u116 + u126 + u136 + u146 + u156 + u166 + u176 = 2
	bin17: u117 + u127 + u137 + u147 + u157 + u167 + u177 = 2
	bin21: u211 + u221 + u231 + u241 + u251 + u261 + u271 = 2
	bin22: u212 + u222 + u232 + u242 + u252 + u262 + u272 = 2
	bin23: u213 + u223 + u233 + u243 + u253 + u263 + u273 = 2
	bin24: u214 + u224 + u234 + u244 + u254 + u264 + u274 = 2
	bin25: u215 + u225 + u235 + u245 + u255 + u265 + u275 = 2
	bin26: u216 + u226 + u236 + u246 + u256 + u266 + u276 = 2
	bin27: u217 + u227 + u237 + u247 + u257 + u267 + u277 = 2
	bin31: u311 + u321 + u331 + u341 + u351 + u361 + u371 = 2
	bin32: u312 + u322 + u332 + u342 + u352 + u362 + u372 = 2
	bin33: u313 + u323 + u333 + u343 + u353 + u363 + u373 = 2
	bin34: u314 + u324 + u334 + u344 + u354 + u364 + u374 = 2
	bin35: u315 + u325 + u335 + u345 + u355 + u365 + u375 = 2
	bin36: u316 + u326 + u336 + u346 + u356 + u366 + u376 = 2
	bin37: u317 + u327 + u337 + u347 + u357 + u367 + u377 = 2
	bin41: u411 + u421 + u431 + u441 + u451 + u461 + u471 = 2
	bin42: u412 + u422 + u432 + u442 + u452 + u462 + u472 = 2
	bin43: u413 + u423 + u433 + u443 + u453 + u463 + u473 = 2
	bin44: u414 + u424 + u434 + u444 + u454 + u464 + u474 = 2
	bin45: u415 + u425 + u435 + u445 + u455 + u465 + u475 = 2
	bin46: u416 + u426 + u436 + u446 + u456 + u466 + u476 = 2
	bin47: u417 + u427 + u437 + u447 + u457 + u467 + u477 = 2
	bin51: u511 + u521 + u531 + u541 + u551 + u561 + u571 = 2
	bin52: u512 + u522 + u532 + u542 + u552 + u562 + u572 = 2
	bin53: u513 + u523 + u533 + u543 + u553 + u563 + u573 = 2
	bin54: u514 + u524 + u534 + u544 + u554 + u564 + u574 = 2
	bin55: u515 + u525 + u535 + u545 + u555 + u565 + u575 = 2
	bin56: u516 + u526 + u536 + u546 + u556 + u566 + u576 = 2
	bin57: u517 + u527 + u537 + u547 + u557 + u567 + u577 = 2
	bin61: u611 + u621 + u631 + u641 + u651 + u661 + u671 = 2
	bin62: u612 + u622 + u632 + u642 + u652 + u662 + u672 = 2
	bin63: u613 + u623 + u633 + u643 + u653 + u663 + u673 = 2
	bin64: u614 + u624 + u634 + u644 + u654 + u664 + u674 = 2
	bin65: u615 + u625 + u635 + u645 + u655 + u665 + u675 = 2
	bin66: u616 + u626 + u636 + u646 + u656 + u666 + u676 = 2
	bin67: u617 + u627 + u637 + u647 + u657 + u667 + u677 = 2
	bin71: u711 + u721 + u731 + u741 + u751 + u761 + u771 = 2
	bin72: u712 + u722 + u732 + u742 + u752 + u762 + u772 = 2
	bin73: u713 + u723 + u733 + u743 + u753 + u763 + u773 = 2
	bin74: u714 + u724 + u734 + u744 + u754 + u764 + u774 = 2
	bin75: u715 + u725 + u735 + u745 + u755 + u765 + u775 = 2
	bin76: u716 + u726 + u736 + u746 + u756 + u766 + u776 = 2
	bin77: u717 + u727 + u737 + u747 + u757 + u767 + u777 = 2

	eqlPath111: 2 x111 - 2 u111 = 0
	eqlPath121: 2 x121 - 2 u121 = 0
	eqlPath131: 2 x131 - 2 u131 = 0
	eqlPath141: 2 x141 - 2 u141 = 0
	eqlPath151: 2 x151 - 2 u151 = 0
	eqlPath161: 2 x161 - 2 u161 = 0
	eqlPath171: 2 x171 - 2 u171 = 0
	eqlPath112: 2 x112 - 3 u112 = 0
	eqlPath122: 2 x122 - 3 u122 = 0
	eqlPath132: 2 x132 - 3 u132 = 0
	eqlPath142: 2 x142 - 3 u142 = 0
	eqlPath152: 2 x152 - 3 u152 = 0
	eqlPath162: 2 x162 - 3 u162 = 0
	eqlPath172: 2 x172 - 3 u172 = 0
	eqlPath113: 2 x113 - 4 u113 = 0
	eqlPath123: 2 x123 - 4 u123 = 0
	eqlPath133: 2 x133 - 4 u133 = 0
	eqlPath143: 2 x143 - 4 u143 = 0
	eqlPath153: 2 x153 - 4 u153 = 0
	eqlPath163: 2 x163 - 4 u163 = 0
	eqlPath173: 2 x173 - 4 u173 = 0
	eqlPath114: 2 x114 - 5 u114 = 0
	eqlPath124: 2 x124 - 5 u124 = 0
	eqlPath134: 2 x134 - 5 u134 = 0
	eqlPath144: 2 x144 - 5 u144 = 0
	eqlPath154: 2 x154 - 5 u154 = 0
	eqlPath164: 2 x164 - 5 u164 = 0
	eqlPath174: 2 x174 - 5 u174 = 0
	eqlPath115: 2 x115 - 6 u115 = 0
	eqlPath125: 2 x125 - 6 u125 = 0
	eqlPath135: 2 x135 - 6 u135 = 0
	eqlPath145: 2 x145 - 6 u145 = 0
	eqlPath155: 2 x155 - 6 u155 = 0
	eqlPath165: 2 x165 - 6 u165 = 0
	eqlPath175: 2 x175 - 6 u175 = 0
	eqlPath116: 2 x116 - 7 u116 = 0
	eqlPath126: 2 x126 - 7 u126 = 0
	eqlPath136: 2 x136 - 7 u136 = 0
	eqlPath146: 2 x146 - 7 u146 = 0
	eqlPath156: 2 x156 - 7 u156 = 0
	eqlPath166: 2 x166 - 7 u166 = 0
	eqlPath176: 2 x176 - 7 u176 = 0
	eqlPath117: 2 x117 - 8 u117 = 0
	eqlPath127: 2 x127 - 8 u127 = 0
	eqlPath137: 2 x137 - 8 u137 = 0
	eqlPath147: 2 x147 - 8 u147 = 0
	eqlPath157: 2 x157 - 8 u157 = 0
	eqlPath167: 2 x167 - 8 u167 = 0
	eqlPath177: 2 x177 - 8 u177 = 0
	eqlPath211: 2 x211 - 3 u211 = 0
	eqlPath221: 2 x221 - 3 u221 = 0
	eqlPath231: 2 x231 - 3 u231 = 0
	eqlPath241: 2 x241 - 3 u241 = 0
	eqlPath251: 2 x251 - 3 u251 = 0
	eqlPath261: 2 x261 - 3 u261 = 0
	eqlPath271: 2 x271 - 3 u271 = 0
	eqlPath212: 2 x212 - 4 u212 = 0
	eqlPath222: 2 x222 - 4 u222 = 0
	eqlPath232: 2 x232 - 4 u232 = 0
	eqlPath242: 2 x242 - 4 u242 = 0
	eqlPath252: 2 x252 - 4 u252 = 0
	eqlPath262: 2 x262 - 4 u262 = 0
	eqlPath272: 2 x272 - 4 u272 = 0
	eqlPath213: 2 x213 - 5 u213 = 0
	eqlPath223: 2 x223 - 5 u223 = 0
	eqlPath233: 2 x233 - 5 u233 = 0
	eqlPath243: 2 x243 - 5 u243 = 0
	eqlPath253: 2 x253 - 5 u253 = 0
	eqlPath263: 2 x263 - 5 u263 = 0
	eqlPath273: 2 x273 - 5 u273 = 0
	eqlPath214: 2 x214 - 6 u214 = 0
	eqlPath224: 2 x224 - 6 u224 = 0
	eqlPath234: 2 x234 - 6 u234 = 0
	eqlPath244: 2 x244 - 6 u244 = 0
	eqlPath254: 2 x254 - 6 u254 = 0
	eqlPath264: 2 x264 - 6 u264 = 0
	eqlPath274: 2 x274 - 6 u274 = 0
	eqlPath215: 2 x215 - 7 u215 = 0
	eqlPath225: 2 x225 - 7 u225 = 0
	eqlPath235: 2 x235 - 7 u235 = 0
	eqlPath245: 2 x245 - 7 u245 = 0
	eqlPath255: 2 x255 - 7 u255 = 0
	eqlPath265: 2 x265 - 7 u265 = 0
	eqlPath275: 2 x275 - 7 u275 = 0
	eqlPath216: 2 x216 - 8 u216 = 0
	eqlPath226: 2 x226 - 8 u226 = 0
	eqlPath236: 2 x236 - 8 u236 = 0
	eqlPath246: 2 x246 - 8 u246 = 0
	eqlPath256: 2 x256 - 8 u256 = 0
	eqlPath266: 2 x266 - 8 u266 = 0
	eqlPath276: 2 x276 - 8 u276 = 0
	eqlPath217: 2 x217 - 9 u217 = 0
	eqlPath227: 2 x227 - 9 u227 = 0
	eqlPath237: 2 x237 - 9 u237 = 0
	eqlPath247: 2 x247 - 9 u247 = 0
	eqlPath257: 2 x257 - 9 u257 = 0
	eqlPath267: 2 x267 - 9 u267 = 0
	eqlPath277: 2 x277 - 9 u277 = 0
	eqlPath311: 2 x311 - 4 u311 = 0
	eqlPath321: 2 x321 - 4 u321 = 0
	eqlPath331: 2 x331 - 4 u331 = 0
	eqlPath341: 2 x341 - 4 u341 = 0
	eqlPath351: 2 x351 - 4 u351 = 0
	eqlPath361: 2 x361 - 4 u361 = 0
	eqlPath371: 2 x371 - 4 u371 = 0
	eqlPath312: 2 x312 - 5 u312 = 0
	eqlPath322: 2 x322 - 5 u322 = 0
	eqlPath332: 2 x332 - 5 u332 = 0
	eqlPath342: 2 x342 - 5 u342 = 0
	eqlPath352: 2 x352 - 5 u352 = 0
	eqlPath362: 2 x362 - 5 u362 = 0
	eqlPath372: 2 x372 - 5 u372 = 0
	eqlPath313: 2 x313 - 6 u313 = 0
	eqlPath323: 2 x323 - 6 u323 = 0
	eqlPath333: 2 x333 - 6 u333 = 0
	eqlPath343: 2 x343 - 6 u343 = 0
	eqlPath353: 2 x353 - 6 u353 = 0
	eqlPath363: 2 x363 - 6 u363 = 0
	eqlPath373: 2 x373 - 6 u373 = 0
	eqlPath314: 2 x314 - 7 u314 = 0
	eqlPath324: 2 x324 - 7 u324 = 0
	eqlPath334: 2 x334 - 7 u334 = 0
	eqlPath344: 2 x344 - 7 u344 = 0
	eqlPath354: 2 x354 - 7 u354 = 0
	eqlPath364: 2 x364 - 7 u364 = 0
	eqlPath374: 2 x374 - 7 u374 = 0
	eqlPath315: 2 x315 - 8 u315 = 0
	eqlPath325: 2 x325 - 8 u325 = 0
	eqlPath335: 2 x335 - 8 u335 = 0
	eqlPath345: 2 x345 - 8 u345 = 0
	eqlPath355: 2 x355 - 8 u355 = 0
	eqlPath365: 2 x365 - 8 u365 = 0
	eqlPath375: 2 x375 - 8 u375 = 0
	eqlPath316: 2 x316 - 9 u316 = 0
	eqlPath326: 2 x326 - 9 u326 = 0
	eqlPath336: 2 x336 - 9 u336 = 0
	eqlPath346: 2 x346 - 9 u346 = 0
	eqlPath356: 2 x356 - 9 u356 = 0
	eqlPath366: 2 x366 - 9 u366 = 0
	eqlPath376: 2 x376 - 9 u376 = 0
	eqlPath317: 2 x317 - 10 u317 = 0
	eqlPath327: 2 x327 - 10 u327 = 0
	eqlPath337: 2 x337 - 10 u337 = 0
	eqlPath347: 2 x347 - 10 u347 = 0
	eqlPath357: 2 x357 - 10 u357 = 0
	eqlPath367: 2 x367 - 10 u367 = 0
	eqlPath377: 2 x377 - 10 u377 = 0
	eqlPath411: 2 x411 - 5 u411 = 0
	eqlPath421: 2 x421 - 5 u421 = 0
	eqlPath431: 2 x431 - 5 u431 = 0
	eqlPath441: 2 x441 - 5 u441 = 0
	eqlPath451: 2 x451 - 5 u451 = 0
	eqlPath461: 2 x461 - 5 u461 = 0
	eqlPath471: 2 x471 - 5 u471 = 0
	eqlPath412: 2 x412 - 6 u412 = 0
	eqlPath422: 2 x422 - 6 u422 = 0
	eqlPath432: 2 x432 - 6 u432 = 0
	eqlPath442: 2 x442 - 6 u442 = 0
	eqlPath452: 2 x452 - 6 u452 = 0
	eqlPath462: 2 x462 - 6 u462 = 0
	eqlPath472: 2 x472 - 6 u472 = 0
	eqlPath413: 2 x413 - 7 u413 = 0
	eqlPath423: 2 x423 - 7 u423 = 0
	eqlPath433: 2 x433 - 7 u433 = 0
	eqlPath443: 2 x443 - 7 u443 = 0
	eqlPath453: 2 x453 - 7 u453 = 0
	eqlPath463: 2 x463 - 7 u463 = 0
	eqlPath473: 2 x473 - 7 u473 = 0
	eqlPath414: 2 x414 - 8 u414 = 0
	eqlPath424: 2 x424 - 8 u424 = 0
	eqlPath434: 2 x434 - 8 u434 = 0
	eqlPath444: 2 x444 - 8 u444 = 0
	eqlPath454: 2 x454 - 8 u454 = 0
	eqlPath464: 2 x464 - 8 u464 = 0
	eqlPath474: 2 x474 - 8 u474 = 0
	eqlPath415: 2 x415 - 9 u415 = 0
	eqlPath425: 2 x425 - 9 u425 = 0
	eqlPath435: 2 x435 - 9 u435 = 0
	eqlPath445: 2 x445 - 9 u445 = 0
	eqlPath455: 2 x455 - 9 u455 = 0
	eqlPath465: 2 x465 - 9 u465 = 0
	eqlPath475: 2 x475 - 9 u475 = 0
	eqlPath416: 2 x416 - 10 u416 = 0
	eqlPath426: 2 x426 - 10 u426 = 0
	eqlPath436: 2 x436 - 10 u436 = 0
	eqlPath446: 2 x446 - 10 u446 = 0
	eqlPath456: 2 x456 - 10 u456 = 0
	eqlPath466: 2 x466 - 10 u466 = 0
	eqlPath476: 2 x476 - 10 u476 = 0
	eqlPath417: 2 x417 - 11 u417 = 0
	eqlPath427: 2 x427 - 11 u427 = 0
	eqlPath437: 2 x437 - 11 u437 = 0
	eqlPath447: 2 x447 - 11 u447 = 0
	eqlPath457: 2 x457 - 11 u457 = 0
	eqlPath467: 2 x467 - 11 u467 = 0
	eqlPath477: 2 x477 - 11 u477 = 0
	eqlPath511: 2 x511 - 6 u511 = 0
	eqlPath521: 2 x521 - 6 u521 = 0
	eqlPath531: 2 x531 - 6 u531 = 0
	eqlPath541: 2 x541 - 6 u541 = 0
	eqlPath551: 2 x551 - 6 u551 = 0
	eqlPath561: 2 x561 - 6 u561 = 0
	eqlPath571: 2 x571 - 6 u571 = 0
	eqlPath512: 2 x512 - 7 u512 = 0
	eqlPath522: 2 x522 - 7 u522 = 0
	eqlPath532: 2 x532 - 7 u532 = 0
	eqlPath542: 2 x542 - 7 u542 = 0
	eqlPath552: 2 x552 - 7 u552 = 0
	eqlPath562: 2 x562 - 7 u562 = 0
	eqlPath572: 2 x572 - 7 u572 = 0
	eqlPath513: 2 x513 - 8 u513 = 0
	eqlPath523: 2 x523 - 8 u523 = 0
	eqlPath533: 2 x533 - 8 u533 = 0
	eqlPath543: 2 x543 - 8 u543 = 0
	eqlPath553: 2 x553 - 8 u553 = 0
	eqlPath563: 2 x563 - 8 u563 = 0
	eqlPath573: 2 x573 - 8 u573 = 0
	eqlPath514: 2 x514 - 9 u514 = 0
	eqlPath524: 2 x524 - 9 u524 = 0
	eqlPath534: 2 x534 - 9 u534 = 0
	eqlPath544: 2 x544 - 9 u544 = 0
	eqlPath554: 2 x554 - 9 u554 = 0
	eqlPath564: 2 x564 - 9 u564 = 0
	eqlPath574: 2 x574 - 9 u574 = 0
	eqlPath515: 2 x515 - 10 u515 = 0
	eqlPath525: 2 x525 - 10 u525 = 0
	eqlPath535: 2 x535 - 10 u535 = 0
	eqlPath545: 2 x545 - 10 u545 = 0
	eqlPath555: 2 x555 - 10 u555 = 0
	eqlPath565: 2 x565 - 10 u565 = 0
	eqlPath575: 2 x575 - 10 u575 = 0
	eqlPath516: 2 x516 - 11 u516 = 0
	eqlPath526: 2 x526 - 11 u526 = 0
	eqlPath536: 2 x536 - 11 u536 = 0
	eqlPath546: 2 x546 - 11 u546 = 0
	eqlPath556: 2 x556 - 11 u556 = 0
	eqlPath566: 2 x566 - 11 u566 = 0
	eqlPath576: 2 x576 - 11 u576 = 0
	eqlPath517: 2 x517 - 12 u517 = 0
	eqlPath527: 2 x527 - 12 u527 = 0
	eqlPath537: 2 x537 - 12 u537 = 0
	eqlPath547: 2 x547 - 12 u547 = 0
	eqlPath557: 2 x557 - 12 u557 = 0
	eqlPath567: 2 x567 - 12 u567 = 0
	eqlPath577: 2 x577 - 12 u577 = 0
	eqlPath611: 2 x611 - 7 u611 = 0
	eqlPath621: 2 x621 - 7 u621 = 0
	eqlPath631: 2 x631 - 7 u631 = 0
	eqlPath641: 2 x641 - 7 u641 = 0
	eqlPath651: 2 x651 - 7 u651 = 0
	eqlPath661: 2 x661 - 7 u661 = 0
	eqlPath671: 2 x671 - 7 u671 = 0
	eqlPath612: 2 x612 - 8 u612 = 0
	eqlPath622: 2 x622 - 8 u622 = 0
	eqlPath632: 2 x632 - 8 u632 = 0
	eqlPath642: 2 x642 - 8 u642 = 0
	eqlPath652: 2 x652 - 8 u652 = 0
	eqlPath662: 2 x662 - 8 u662 = 0
	eqlPath672: 2 x672 - 8 u672 = 0
	eqlPath613: 2 x613 - 9 u613 = 0
	eqlPath623: 2 x623 - 9 u623 = 0
	eqlPath633: 2 x633 - 9 u633 = 0
	eqlPath643: 2 x643 - 9 u643 = 0
	eqlPath653: 2 x653 - 9 u653 = 0
	eqlPath663: 2 x663 - 9 u663 = 0
	eqlPath673: 2 x673 - 9 u673 = 0
	eqlPath614: 2 x614 - 10 u614 = 0
	eqlPath624: 2 x624 - 10 u624 = 0
	eqlPath634: 2 x634 - 10 u634 = 0
	eqlPath644: 2 x644 - 10 u644 = 0
	eqlPath654: 2 x654 - 10 u654 = 0
	eqlPath664: 2 x664 - 10 u664 = 0
	eqlPath674: 2 x674 - 10 u674 = 0
	eqlPath615: 2 x615 - 11 u615 = 0
	eqlPath625: 2 x625 - 11 u625 = 0
	eqlPath635: 2 x635 - 11 u635 = 0
	eqlPath645: 2 x645 - 11 u645 = 0
	eqlPath655: 2 x655 - 11 u655 = 0
	eqlPath665: 2 x665 - 11 u665 = 0
	eqlPath675: 2 x675 - 11 u675 = 0
	eqlPath616: 2 x616 - 12 u616 = 0
	eqlPath626: 2 x626 - 12 u626 = 0
	eqlPath636: 2 x636 - 12 u636 = 0
	eqlPath646: 2 x646 - 12 u646 = 0
	eqlPath656: 2 x656 - 12 u656 = 0
	eqlPath666: 2 x666 - 12 u666 = 0
	eqlPath676: 2 x676 - 12 u676 = 0
	eqlPath617: 2 x617 - 13 u617 = 0
	eqlPath627: 2 x627 - 13 u627 = 0
	eqlPath637: 2 x637 - 13 u637 = 0
	eqlPath647: 2 x647 - 13 u647 = 0
	eqlPath657: 2 x657 - 13 u657 = 0
	eqlPath667: 2 x667 - 13 u667 = 0
	eqlPath677: 2 x677 - 13 u677 = 0
	eqlPath711: 2 x711 - 8 u711 = 0
	eqlPath721: 2 x721 - 8 u721 = 0
	eqlPath731: 2 x731 - 8 u731 = 0
	eqlPath741: 2 x741 - 8 u741 = 0
	eqlPath751: 2 x751 - 8 u751 = 0
	eqlPath761: 2 x761 - 8 u761 = 0
	eqlPath771: 2 x771 - 8 u771 = 0
	eqlPath712: 2 x712 - 9 u712 = 0
	eqlPath722: 2 x722 - 9 u722 = 0
	eqlPath732: 2 x732 - 9 u732 = 0
	eqlPath742: 2 x742 - 9 u742 = 0
	eqlPath752: 2 x752 - 9 u752 = 0
	eqlPath762: 2 x762 - 9 u762 = 0
	eqlPath772: 2 x772 - 9 u772 = 0
	eqlPath713: 2 x713 - 10 u713 = 0
	eqlPath723: 2 x723 - 10 u723 = 0
	eqlPath733: 2 x733 - 10 u733 = 0
	eqlPath743: 2 x743 - 10 u743 = 0
	eqlPath753: 2 x753 - 10 u753 = 0
	eqlPath763: 2 x763 - 10 u763 = 0
	eqlPath773: 2 x773 - 10 u773 = 0
	eqlPath714: 2 x714 - 11 u714 = 0
	eqlPath724: 2 x724 - 11 u724 = 0
	eqlPath734: 2 x734 - 11 u734 = 0
	eqlPath744: 2 x744 - 11 u744 = 0
	eqlPath754: 2 x754 - 11 u754 = 0
	eqlPath764: 2 x764 - 11 u764 = 0
	eqlPath774: 2 x774 - 11 u774 = 0
	eqlPath715: 2 x715 - 12 u715 = 0
	eqlPath725: 2 x725 - 12 u725 = 0
	eqlPath735: 2 x735 - 12 u735 = 0
	eqlPath745: 2 x745 - 12 u745 = 0
	eqlPath755: 2 x755 - 12 u755 = 0
	eqlPath765: 2 x765 - 12 u765 = 0
	eqlPath775: 2 x775 - 12 u775 = 0
	eqlPath716: 2 x716 - 13 u716 = 0
	eqlPath726: 2 x726 - 13 u726 = 0
	eqlPath736: 2 x736 - 13 u736 = 0
	eqlPath746: 2 x746 - 13 u746 = 0
	eqlPath756: 2 x756 - 13 u756 = 0
	eqlPath766: 2 x766 - 13 u766 = 0
	eqlPath776: 2 x776 - 13 u776 = 0
	eqlPath717: 2 x717 - 14 u717 = 0
	eqlPath727: 2 x727 - 14 u727 = 0
	eqlPath737: 2 x737 - 14 u737 = 0
	eqlPath747: 2 x747 - 14 u747 = 0
	eqlPath757: 2 x757 - 14 u757 = 0
	eqlPath767: 2 x767 - 14 u767 = 0
	eqlPath777: 2 x777 - 14 u777 = 0


Bounds
	r >= 0
	x217 >= 0
	x774 >= 0
	x223 >= 0
	x723 >= 0
	x656 >= 0
	x356 >= 0
	x347 >= 0
	x263 >= 0
	x615 >= 0
	x475 >= 0
	x517 >= 0
	x351 >= 0
	x546 >= 0
	x672 >= 0
	x357 >= 0
	x227 >= 0
	x211 >= 0
	x661 >= 0
	x153 >= 0
	x117 >= 0
	x232 >= 0
	x734 >= 0
	x476 >= 0
	x724 >= 0
	x645 >= 0
	x547 >= 0
	x411 >= 0
	x715 >= 0
	x425 >= 0
	x177 >= 0
	x575 >= 0
	x636 >= 0
	x162 >= 0
	x372 >= 0
	x265 >= 0
	x751 >= 0
	x121 >= 0
	x764 >= 0
	x654 >= 0
	x644 >= 0
	x514 >= 0
	x613 >= 0
	x256 >= 0
	x424 >= 0
	x146 >= 0
	x474 >= 0
	x157 >= 0
	x134 >= 0
	x666 >= 0
	x565 >= 0
	x513 >= 0
	x633 >= 0
	x243 >= 0
	x225 >= 0
	x676 >= 0
	x523 >= 0
	x336 >= 0
	x163 >= 0
	x542 >= 0
	x642 >= 0
	x534 >= 0
	x344 >= 0
	x537 >= 0
	x667 >= 0
	x526 >= 0
	x536 >= 0
	x414 >= 0
	x442 >= 0
	x456 >= 0
	x143 >= 0
	x361 >= 0
	x236 >= 0
	x436 >= 0
	x241 >= 0
	x341 >= 0
	x242 >= 0
	x317 >= 0
	x212 >= 0
	x755 >= 0
	x342 >= 0
	x325 >= 0
	x377 >= 0
	x321 >= 0
	x541 >= 0
	x471 >= 0
	x312 >= 0
	x461 >= 0
	x323 >= 0
	x137 >= 0
	x416 >= 0
	x657 >= 0
	x447 >= 0
	x532 >= 0
	x213 >= 0
	x373 >= 0
	x376 >= 0
	x234 >= 0
	x521 >= 0
	x746 >= 0
	x467 >= 0
	x577 >= 0
	x616 >= 0
	x776 >= 0
	x665 >= 0
	x111 >= 0
	x161 >= 0
	x434 >= 0
	x747 >= 0
	x632 >= 0
	x775 >= 0
	x726 >= 0
	x326 >= 0
	x423 >= 0
	x123 >= 0
	x371 >= 0
	x221 >= 0
	x167 >= 0
	x353 >= 0
	x732 >= 0
	x525 >= 0
	x451 >= 0
	x127 >= 0
	x172 >= 0
	x433 >= 0
	x355 >= 0
	x515 >= 0
	x231 >= 0
	x431 >= 0
	x314 >= 0
	x335 >= 0
	x432 >= 0
	x363 >= 0
	x742 >= 0
	x754 >= 0
	x115 >= 0
	x145 >= 0
	x511 >= 0
	x617 >= 0
	x557 >= 0
	x652 >= 0
	x437 >= 0
	x417 >= 0
	x527 >= 0
	x126 >= 0
	x752 >= 0
	x235 >= 0
	x237 >= 0
	x435 >= 0
	x646 >= 0
	x133 >= 0
	x545 >= 0
	x334 >= 0
	x675 >= 0
	x551 >= 0
	x251 >= 0
	x477 >= 0
	x753 >= 0
	x756 >= 0
	x175 >= 0
	x311 >= 0
	x624 >= 0
	x233 >= 0
	x346 >= 0
	x166 >= 0
	x352 >= 0
	x443 >= 0
	x737 >= 0
	x276 >= 0
	x262 >= 0
	x124 >= 0
	x246 >= 0
	x567 >= 0
	x664 >= 0
	x364 >= 0
	x214 >= 0
	x733 >= 0
	x426 >= 0
	x165 >= 0
	x622 >= 0
	x761 >= 0
	x267 >= 0
	x531 >= 0
	x156 >= 0
	x731 >= 0
	x566 >= 0
	x554 >= 0
	x735 >= 0
	x763 >= 0
	x556 >= 0
	x524 >= 0
	x253 >= 0
	x112 >= 0
	x762 >= 0
	x316 >= 0
	x621 >= 0
	x712 >= 0
	x635 >= 0
	x215 >= 0
	x662 >= 0
	x634 >= 0
	x154 >= 0
	x722 >= 0
	x757 >= 0
	x125 >= 0
	x273 >= 0
	x216 >= 0
	x651 >= 0
	x173 >= 0
	x647 >= 0
	x721 >= 0
	x132 >= 0
	x135 >= 0
	x465 >= 0
	x674 >= 0
	x315 >= 0
	x141 >= 0
	x224 >= 0
	x464 >= 0
	x533 >= 0
	x727 >= 0
	x522 >= 0
	x767 >= 0
	x466 >= 0
	x744 >= 0
	x332 >= 0
	x741 >= 0
	x142 >= 0
	x174 >= 0
	x553 >= 0
	x623 >= 0
	x333 >= 0
	x453 >= 0
	x345 >= 0
	x367 >= 0
	x113 >= 0
	x337 >= 0
	x324 >= 0
	x625 >= 0
	x375 >= 0
	x171 >= 0
	x535 >= 0
	x264 >= 0
	x614 >= 0
	x261 >= 0
	x765 >= 0
	x572 >= 0
	x512 >= 0
	x415 >= 0
	x563 >= 0
	x245 >= 0
	x254 >= 0
	x164 >= 0
	x457 >= 0
	x266 >= 0
	x445 >= 0
	x663 >= 0
	x673 >= 0
	x714 >= 0
	x777 >= 0
	x626 >= 0
	x717 >= 0
	x671 >= 0
	x573 >= 0
	x116 >= 0
	x427 >= 0
	x441 >= 0
	x313 >= 0
	x343 >= 0
	x131 >= 0
	x151 >= 0
	x144 >= 0
	x677 >= 0
	x643 >= 0
	x462 >= 0
	x274 >= 0
	x366 >= 0
	x244 >= 0
	x446 >= 0
	x516 >= 0
	x362 >= 0
	x543 >= 0
	x713 >= 0
	x574 >= 0
	x772 >= 0
	x277 >= 0
	x562 >= 0
	x275 >= 0
	x331 >= 0
	x226 >= 0
	x637 >= 0
	x454 >= 0
	x452 >= 0
	x444 >= 0
	x725 >= 0
	x147 >= 0
	x365 >= 0
	x473 >= 0
	x771 >= 0
	x472 >= 0
	x552 >= 0
	x252 >= 0
	x272 >= 0
	x176 >= 0
	x114 >= 0
	x612 >= 0
	x641 >= 0
	x745 >= 0
	x627 >= 0
	x152 >= 0
	x736 >= 0
	x544 >= 0
	x576 >= 0
	x555 >= 0
	x257 >= 0
	x463 >= 0
	x564 >= 0
	x122 >= 0
	x611 >= 0
	x271 >= 0
	x247 >= 0
	x327 >= 0
	x711 >= 0
	x136 >= 0
	x222 >= 0
	x716 >= 0
	x766 >= 0
	x653 >= 0
	x155 >= 0
	x354 >= 0
	x455 >= 0
	x422 >= 0
	x743 >= 0
	x374 >= 0
	x322 >= 0
	x255 >= 0
	x571 >= 0
	x412 >= 0
	x631 >= 0
	x655 >= 0
	x421 >= 0
	x561 >= 0
	x773 >= 0
	x413 >= 0
	c74 >= 0
	c23 >= 0
	c44 >= 0
	c33 >= 0
	c34 >= 0
	c25 >= 0
	c22 >= 0
	c12 >= 0
	c75 >= 0
	c27 >= 0
	c35 >= 0
	c37 >= 0
	c13 >= 0
	c66 >= 0
	c65 >= 0
	c62 >= 0
	c15 >= 0
	c24 >= 0
	c67 >= 0
	c73 >= 0
	c72 >= 0
	c45 >= 0
	c53 >= 0
	c31 >= 0
	c21 >= 0
	c14 >= 0
	c26 >= 0
	c57 >= 0
	c16 >= 0
	c42 >= 0
	c52 >= 0
	c54 >= 0
	c32 >= 0
	c64 >= 0
	c41 >= 0
	c76 >= 0
	c71 >= 0
	c77 >= 0
	c55 >= 0
	c61 >= 0
	c17 >= 0
	c51 >= 0
	c46 >= 0
	c56 >= 0
	c36 >= 0
	c43 >= 0
	c11 >= 0
	c47 >= 0
	c63 >= 0
	d13 >= 0
	d27 >= 0
	d71 >= 0
	d65 >= 0
	d51 >= 0
	d77 >= 0
	d21 >= 0
	d72 >= 0
	d52 >= 0
	d14 >= 0
	d67 >= 0
	d75 >= 0
	d63 >= 0
	d64 >= 0
	d23 >= 0
	d33 >= 0
	d11 >= 0
	d12 >= 0
	d31 >= 0
	d54 >= 0
	d32 >= 0
	d15 >= 0
	d55 >= 0
	d76 >= 0
	d26 >= 0
	d46 >= 0
	d17 >= 0
	d42 >= 0
	d37 >= 0
	d25 >= 0
	d36 >= 0
	d35 >= 0
	d61 >= 0
	d41 >= 0
	d22 >= 0
	d62 >= 0
	d56 >= 0
	d34 >= 0
	d47 >= 0
	d57 >= 0
	d45 >= 0
	d53 >= 0
	d24 >= 0
	d66 >= 0
	d74 >= 0
	d73 >= 0
	d16 >= 0
	d44 >= 0
	d43 >= 0


Binaries
	u111
	u121
	u131
	u141
	u151
	u161
	u171
	u112
	u122
	u132
	u142
	u152
	u162
	u172
	u113
	u123
	u133
	u143
	u153
	u163
	u173
	u114
	u124
	u134
	u144
	u154
	u164
	u174
	u115
	u125
	u135
	u145
	u155
	u165
	u175
	u116
	u126
	u136
	u146
	u156
	u166
	u176
	u117
	u127
	u137
	u147
	u157
	u167
	u177
	u211
	u221
	u231
	u241
	u251
	u261
	u271
	u212
	u222
	u232
	u242
	u252
	u262
	u272
	u213
	u223
	u233
	u243
	u253
	u263
	u273
	u214
	u224
	u234
	u244
	u254
	u264
	u274
	u215
	u225
	u235
	u245
	u255
	u265
	u275
	u216
	u226
	u236
	u246
	u256
	u266
	u276
	u217
	u227
	u237
	u247
	u257
	u267
	u277
	u311
	u321
	u331
	u341
	u351
	u361
	u371
	u312
	u322
	u332
	u342
	u352
	u362
	u372
	u313
	u323
	u333
	u343
	u353
	u363
	u373
	u314
	u324
	u334
	u344
	u354
	u364
	u374
	u315
	u325
	u335
	u345
	u355
	u365
	u375
	u316
	u326
	u336
	u346
	u356
	u366
	u376
	u317
	u327
	u337
	u347
	u357
	u367
	u377
	u411
	u421
	u431
	u441
	u451
	u461
	u471
	u412
	u422
	u432
	u442
	u452
	u462
	u472
	u413
	u423
	u433
	u443
	u453
	u463
	u473
	u414
	u424
	u434
	u444
	u454
	u464
	u474
	u415
	u425
	u435
	u445
	u455
	u465
	u475
	u416
	u426
	u436
	u446
	u456
	u466
	u476
	u417
	u427
	u437
	u447
	u457
	u467
	u477
	u511
	u521
	u531
	u541
	u551
	u561
	u571
	u512
	u522
	u532
	u542
	u552
	u562
	u572
	u513
	u523
	u533
	u543
	u553
	u563
	u573
	u514
	u524
	u534
	u544
	u554
	u564
	u574
	u515
	u525
	u535
	u545
	u555
	u565
	u575
	u516
	u526
	u536
	u546
	u556
	u566
	u576
	u517
	u527
	u537
	u547
	u557
	u567
	u577
	u611
	u621
	u631
	u641
	u651
	u661
	u671
	u612
	u622
	u632
	u642
	u652
	u662
	u672
	u613
	u623
	u633
	u643
	u653
	u663
	u673
	u614
	u624
	u634
	u644
	u654
	u664
	u674
	u615
	u625
	u635
	u645
	u655
	u665
	u675
	u616
	u626
	u636
	u646
	u656
	u666
	u676
	u617
	u627
	u637
	u647
	u657
	u667
	u677
	u711
	u721
	u731
	u741
	u751
	u761
	u771
	u712
	u722
	u732
	u742
	u752
	u762
	u772
	u713
	u723
	u733
	u743
	u753
	u763
	u773
	u714
	u724
	u734
	u744
	u754
	u764
	u774
	u715
	u725
	u735
	u745
	u755
	u765
	u775
	u716
	u726
	u736
	u746
	u756
	u766
	u776
	u717
	u727
	u737
	u747
	u757
	u767
	u777


End